&control
  calculation = 'scf',
  pseudo_dir = '/home/cmueller/qe/pseudos/PSEUDOPOTENTIALS'
  outdir='/tmp/InAl/'
  prefix='InAl',
/

&system
  ibrav = 0,
  celldm(1) = 5.78,
  nat = 3,
  ntyp = 2,
  nspin = 2,
  starting_magnetization(1) =  0.4,
  starting_magnetization(2) = -0.4,
  ecutwfc = 60.0,
  ecutrho = 240.0,
  noncolin= .false.,
  lspinorb=.false.,
  occupations = 'smearing',
  smearing = 'mv',
  degauss = 0.01
/

&electrons
  mixing_beta = 0.2
  conv_thr =  1.0d-8,
  electron_maxstep = 200
/

ATOMIC_SPECIES
  In1 1.0 In.pbe-dn-kjpaw_psl.1.0.0.UPF
  As1 1.0 As.pbe-dn-kjpaw_psl.1.0.0.UPF

CELL_PARAMETERS
  0.502322857   0.502322857   1.010537243
  0.502322857   1.010537243   0.502322857
  1.010537243   0.502322857   0.502322857

ATOMIC_POSITIONS {crystal}
  In1      0.000000000   0.000000000   0.000000000
  In1      0.500000000   0.500000000   0.500000000
  As1       0.250000000   0.250000000   0.250000000

K_POINTS {automatic}
 4 4 4 0 0 0

HUBBARD ortho-atomic
  U In1-3d 6.d-5
  U In2-3d 6.d-5

