 &CONTROL
    pseudo_dir = /home/cmueller/qe/pseudos/PSEUDOPOTENTIALS/
 /

 &SYSTEM
    ibrav = 1
    A = 15.0
    nat = 5
    ntyp = 2
    ecutwfc = 18.0
occupations='smearing'
degauss=0.1d0
 /

 &ELECTRONS
 /

ATOMIC_SPECIES
 In  114.818  In.pbe-dn-kjpaw_psl.1.0.0.UPF
 As  74.9261  As.pbe-dn-kjpaw_psl.1.0.0.UPF

ATOMIC_POSITIONS angstrom
 In  0.0       0.0       0.0
 In  0.0       0.0       1.089
 As  1.026719  0.000000 -0.363000
 As -0.513360 -0.889165 -0.363000
 As -0.513360  0.889165 -0.363000

K_POINTS gamma
